
n_res = 4;
rcap = [63, 58, 544, 537];
rtype = [1, 1, 2, 2];
n_tasks = 100;
modes =  [{1, 2, 3}, {4, 5, 6}, {7, 8, 9}, {10, 11, 12}, {13, 14, 15}, {16, 17, 18}, {19, 20, 21}, {22, 23, 24}, {25, 26, 27}, {28, 29, 30}, {31, 32, 33}, {34, 35, 36}, {37, 38, 39}, {40, 41, 42}, {43, 44, 45}, {46, 47, 48}, {49, 50, 51}, {52, 53, 54}, {55, 56, 57}, {58, 59, 60}, {61, 62, 63}, {64, 65, 66}, {67, 68, 69}, {70, 71, 72}, {73, 74, 75}, {76, 77, 78}, {79, 80, 81}, {82, 83, 84}, {85, 86, 87}, {88, 89, 90}, {91, 92, 93}, {94, 95, 96}, {97, 98, 99}, {100, 101, 102}, {103, 104, 105}, {106, 107, 108}, {109, 110, 111}, {112, 113, 114}, {115, 116, 117}, {118, 119, 120}, {121, 122, 123}, {124, 125, 126}, {127, 128, 129}, {130, 131, 132}, {133, 134, 135}, {136, 137, 138}, {139, 140, 141}, {142, 143, 144}, {145, 146, 147}, {148, 149, 150}, {151, 152, 153}, {154, 155, 156}, {157, 158, 159}, {160, 161, 162}, {163, 164, 165}, {166, 167, 168}, {169, 170, 171}, {172, 173, 174}, {175, 176, 177}, {178, 179, 180}, {181, 182, 183}, {184, 185, 186}, {187, 188, 189}, {190, 191, 192}, {193, 194, 195}, {196, 197, 198}, {199, 200, 201}, {202, 203, 204}, {205, 206, 207}, {208, 209, 210}, {211, 212, 213}, {214, 215, 216}, {217, 218, 219}, {220, 221, 222}, {223, 224, 225}, {226, 227, 228}, {229, 230, 231}, {232, 233, 234}, {235, 236, 237}, {238, 239, 240}, {241, 242, 243}, {244, 245, 246}, {247, 248, 249}, {250, 251, 252}, {253, 254, 255}, {256, 257, 258}, {259, 260, 261}, {262, 263, 264}, {265, 266, 267}, {268, 269, 270}, {271, 272, 273}, {274, 275, 276}, {277, 278, 279}, {280, 281, 282}, {283, 284, 285}, {286, 287, 288}, {289, 290, 291}, {292, 293, 294}, {295, 296, 297}, {298, 299, 300}];
succ =  [{100, 98, 71, 62, 59, 55, 54, 49, 47, 40, 39, 38, 36, 34, 32, 30, 27, 26, 10}, {100, 98, 94, 84, 71, 69, 68, 66, 64, 62, 24, 14}, {98, 97, 71, 70, 68, 66, 62, 60, 51, 43, 39, 38, 34, 22}, {100, 96, 94, 92, 91, 62, 53, 51, 48, 46, 40, 17}, {100, 98, 96, 91, 80, 70, 65, 58, 52, 49, 48, 43, 40, 24}, {100, 98, 91, 90, 84, 71, 70, 65, 62, 60, 52, 51, 48, 45, 44, 42, 40, 38}, {99, 97, 96, 90, 87, 86, 70, 69, 67, 65, 60, 59, 58, 52, 46, 39, 34}, {100, 96, 93, 91, 90, 83, 71, 68, 66, 64, 63, 62, 60, 55, 37, 35, 29}, {94, 92, 90, 87, 68, 66, 64, 63, 57, 56, 48, 47, 45, 44, 30}, {97, 96, 93, 91, 88, 86, 63, 61, 58, 52, 48, 46, 44, 41}, {97, 95, 93, 90, 88, 87, 86, 81, 71, 69, 67, 64, 62, 58, 51, 31}, {98, 96, 94, 92, 86, 85, 78, 77, 69, 63, 61, 56, 48, 45, 41}, {99, 97, 96, 95, 93, 92, 90, 89, 88, 87, 84, 80, 78, 76, 70, 68, 67, 64, 63, 58, 48, 47}, {99, 96, 92, 91, 86, 61, 51, 48, 46, 45, 40, 38}, {99, 98, 97, 96, 93, 92, 90, 87, 82, 81, 79, 77, 69, 59, 58, 55, 51, 39}, {100, 99, 97, 96, 94, 91, 90, 88, 85, 77, 70, 67, 66, 63, 59, 44, 41}, {99, 98, 97, 95, 93, 89, 84, 82, 80, 79, 78, 76, 70, 65, 61, 60, 59, 58, 47}, {100, 96, 94, 92, 91, 90, 87, 80, 67, 63, 49, 48, 46, 45}, {98, 94, 92, 86, 77, 71, 67, 59, 50, 48, 41, 39}, {99, 95, 94, 92, 91, 90, 89, 88, 87, 86, 85, 81, 71, 69, 67, 64, 62, 59, 44}, {94, 92, 91, 90, 89, 88, 87, 68, 67, 65, 64, 56, 47, 38}, {96, 94, 93, 92, 91, 89, 88, 87, 86, 84, 83, 82, 81, 80, 79, 78, 77, 76, 74, 69, 67, 65, 63, 59}, {100, 98, 93, 92, 90, 89, 88, 87, 86, 85, 84, 77, 74, 73, 69, 63, 48}, {99, 85, 83, 82, 81, 79, 78, 77, 67, 63, 61, 60, 45}, {95, 93, 91, 90, 88, 86, 85, 84, 83, 82, 81, 80, 79, 78, 77, 76, 74, 73, 72, 63}, {97, 93, 91, 89, 87, 86, 83, 82, 80, 79, 77, 76, 74, 72, 63, 52}, {95, 94, 93, 91, 90, 85, 83, 82, 81, 80, 79, 78, 77, 76, 68, 65, 64}, {96, 95, 93, 89, 81, 80, 79, 78, 77, 76, 75, 74, 73, 68, 66, 65, 60}, {92, 87, 81, 80, 46, 45}, {97, 96, 93, 91, 85, 84, 83, 80, 79, 78, 77, 76, 75, 74, 73, 65}, {94, 92, 91, 85, 84, 83, 82, 78, 77, 76, 74, 70, 63, 59}, {91, 90, 86, 84, 82, 81, 80, 79, 78, 76, 75, 73, 69, 67, 66}, {95, 92, 88, 87, 85, 84, 77, 76, 68, 66, 64, 63}, {93, 91, 88, 78, 77, 76, 73, 64, 48}, {94, 92, 87, 84, 81, 76, 75, 74, 46}, {95, 91, 87, 86, 80, 76, 75, 74, 73, 67, 60}, {92, 89, 87, 82, 81, 80, 78, 76, 75, 73, 72}, {93, 83, 82, 78, 77, 76, 74, 73, 72, 63}, {91, 89, 84, 83, 80, 78, 76, 74, 73, 63}, {97, 87, 83, 82, 77, 76, 74, 73, 63}, {89, 84, 81, 79, 76, 68, 65, 64}, {86, 80, 79, 78, 77, 76, 73, 64}, {90, 87, 86, 84, 82, 79, 78, 74}, {83, 82, 80, 79, 78, 76, 74}, {95, 89, 88, 76, 59}, {85, 79, 78, 77, 73, 72}, {86, 83, 81, 77, 74, 73}, {83, 82, 81, 79, 75}, {89, 86, 84, 74, 73}, {93, 90, 81, 80, 75}, {85, 80, 74, 73}, {94, 92, 85, 73}, {95, 84, 81, 72}, {86, 81, 75, 73}, {86, 80, 73}, {84, 80, 79}, {88, 82, 72}, {85, 66}, {75, 73}, {88, 72}, {90, 87}, {77, 74}, {75}, {74}, {72}, {72}, {72}, {72}, {72}, {72}, {82}, {}, {}, {}, {}, {}, {}, {}, {}, {}, {}, {}, {}, {}, {}, {}, {}, {}, {}, {}, {}, {}, {}, {}, {}, {}, {}, {}, {}, {}];
n_opt = 300;
dur = [3, 9, 10, 1, 6, 7, 1, 7, 7, 8, 8, 9, 1, 3, 6, 1, 3, 4, 1, 4, 9, 1, 3, 8, 4, 7, 8, 3, 4, 6, 4, 6, 9, 1, 3, 8, 1, 4, 6, 1, 2, 6, 4, 9, 10, 2, 8, 9, 1, 2, 6, 3, 3, 9, 7, 9, 10, 4, 6, 7, 1, 7, 8, 2, 5, 6, 3, 8, 10, 2, 2, 5, 2, 6, 9, 4, 8, 9, 7, 8, 10, 1, 2, 9, 2, 8, 8, 5, 9, 10, 6, 7, 7, 2, 3, 7, 2, 5, 7, 1, 5, 7, 1, 4, 5, 4, 5, 7, 2, 6, 9, 7, 8, 9, 1, 2, 9, 4, 5, 6, 2, 3, 9, 1, 7, 8, 2, 4, 4, 3, 5, 7, 2, 3, 4, 5, 8, 9, 5, 8, 9, 4, 5, 9, 2, 8, 9, 5, 5, 6, 6, 7, 10, 2, 5, 8, 3, 7, 8, 2, 3, 8, 4, 6, 7, 1, 3, 10, 2, 3, 8, 1, 4, 10, 1, 1, 2, 2, 9, 10, 5, 5, 9, 4, 5, 10, 3, 5, 6, 3, 4, 9, 3, 5, 8, 1, 6, 10, 6, 8, 9, 1, 3, 9, 4, 5, 7, 1, 2, 4, 3, 3, 8, 3, 4, 10, 1, 6, 9, 1, 2, 5, 1, 9, 10, 7, 8, 10, 2, 3, 8, 1, 5, 6, 3, 5, 10, 1, 9, 10, 3, 4, 6, 1, 1, 6, 4, 5, 9, 1, 6, 8, 2, 6, 6, 3, 5, 9, 5, 6, 10, 2, 9, 10, 6, 8, 10, 1, 6, 8, 1, 5, 6, 6, 9, 10, 4, 5, 6, 4, 8, 9, 1, 2, 10, 2, 3, 4, 4, 8, 10, 1, 7, 7, 2, 3, 9, 9, 10, 10];
rreq = [|0, 0, 0, 0, 4, 4, 0, 3, 0, 5, 0, 0, 4, 0, 3, 0, 3, 0, 0, 4, 4, 0, 0, 0, 0, 2, 2, 0, 0, 0, 0, 0, 2, 0, 0, 5, 0, 2, 0, 5, 0, 0, 0, 4, 4, 3, 0, 1, 5, 0, 5, 0, 2, 2, 0, 3, 0, 0, 3, 0, 0, 0, 5, 5, 0, 0, 2, 0, 1, 0, 5, 0, 0, 1, 0, 0, 0, 0, 0, 1, 0, 0, 1, 1, 2, 2, 0, 4, 0, 0, 0, 0, 3, 3, 1, 0, 0, 4, 3, 2, 2, 2, 0, 0, 0, 0, 3, 0, 3, 0, 0, 0, 2, 1, 2, 0, 0, 0, 0, 3, 3, 0, 0, 4, 0, 0, 0, 5, 0, 0, 1, 0, 3, 0, 0, 4, 3, 2, 3, 2, 2, 0, 1, 0, 0, 4, 3, 5, 0, 0, 0, 0, 0, 3, 2, 2, 2, 1, 1, 0, 0, 3, 3, 2, 1, 0, 2, 1, 0, 0, 0, 0, 0, 0, 0, 3, 1, 2, 1, 0, 2, 0, 2, 5, 4, 0, 2, 0, 0, 1, 0, 1, 5, 0, 2, 2, 0, 0, 4, 0, 0, 0, 2, 0, 5, 5, 0, 3, 2, 2, 4, 0, 0, 0, 0, 0, 0, 0, 2, 0, 4, 2, 3, 0, 0, 1, 0, 0, 4, 4, 0, 0, 0, 0, 1, 1, 1, 4, 0, 2, 3, 0, 0, 5, 0, 2, 0, 0, 0, 3, 0, 2, 0, 0, 3, 0, 2, 0, 0, 3, 0, 0, 1, 0, 0, 2, 0, 2, 0, 1, 1, 1, 1, 0, 0, 0, 3, 3, 3, 3, 0, 0, 0, 4, 2, 3, 0, 1, 4, 0, 2, 3, 0, 1, 0, 0, 0, 0, 0, 4
 |5, 3, 1, 3, 0, 0, 5, 0, 3, 0, 2, 2, 0, 2, 0, 2, 0, 1, 1, 0, 0, 2, 1, 1, 5, 0, 0, 3, 3, 3, 5, 3, 0, 5, 4, 0, 2, 0, 2, 0, 1, 1, 4, 0, 0, 0, 2, 0, 0, 3, 0, 5, 0, 0, 5, 0, 2, 4, 0, 3, 4, 3, 0, 0, 2, 1, 0, 2, 0, 3, 0, 2, 2, 0, 1, 5, 4, 4, 3, 0, 2, 4, 0, 0, 0, 0, 4, 0, 4, 4, 4, 3, 0, 0, 0, 1, 5, 0, 0, 0, 0, 0, 4, 3, 3, 3, 0, 2, 0, 2, 1, 5, 0, 0, 0, 2, 2, 4, 3, 0, 0, 3, 2, 0, 3, 3, 1, 0, 1, 5, 0, 5, 0, 2, 1, 0, 0, 0, 0, 0, 0, 5, 0, 5, 3, 0, 0, 0, 1, 1, 4, 4, 4, 0, 0, 0, 0, 0, 0, 5, 4, 0, 0, 0, 0, 2, 0, 0, 2, 1, 1, 2, 1, 1, 5, 0, 0, 0, 0, 3, 0, 1, 0, 0, 0, 1, 0, 3, 2, 0, 4, 0, 0, 3, 0, 0, 3, 3, 0, 3, 2, 2, 0, 1, 0, 0, 1, 0, 0, 0, 0, 1, 1, 1, 1, 1, 2, 1, 0, 3, 0, 0, 0, 3, 3, 0, 3, 3, 0, 0, 2, 4, 4, 3, 0, 0, 0, 0, 3, 0, 0, 4, 3, 0, 4, 0, 4, 4, 4, 0, 3, 0, 4, 3, 0, 3, 0, 1, 4, 0, 2, 5, 0, 5, 5, 0, 4, 0, 3, 0, 0, 0, 0, 3, 3, 3, 0, 0, 0, 0, 1, 1, 3, 0, 0, 0, 1, 0, 0, 2, 0, 0, 4, 0, 3, 2, 2, 4, 4, 0
 |9, 8, 7, 7, 7, 7, 4, 3, 3, 7, 7, 7, 9, 7, 7, 7, 4, 3, 5, 5, 3, 6, 4, 1, 4, 3, 2, 7, 7, 6, 9, 8, 7, 10, 8, 8, 9, 8, 8, 9, 4, 2, 5, 3, 1, 9, 8, 8, 6, 5, 5, 2, 2, 1, 9, 9, 7, 8, 8, 8, 5, 4, 2, 9, 7, 6, 5, 3, 2, 8, 7, 5, 3, 2, 2, 8, 8, 7, 9, 9, 7, 7, 5, 2, 2, 1, 1, 4, 2, 2, 9, 3, 3, 2, 1, 1, 5, 4, 4, 2, 1, 1, 10, 9, 8, 8, 7, 7, 6, 6, 6, 9, 9, 9, 4, 4, 3, 10, 9, 8, 4, 3, 2, 3, 3, 3, 7, 5, 2, 5, 4, 4, 9, 7, 7, 5, 5, 5, 10, 7, 6, 3, 3, 3, 10, 8, 8, 7, 7, 7, 8, 7, 6, 6, 4, 4, 6, 5, 5, 5, 5, 4, 7, 5, 3, 5, 5, 5, 6, 5, 5, 6, 6, 6, 4, 4, 2, 10, 9, 8, 3, 2, 2, 2, 2, 1, 10, 6, 6, 10, 9, 9, 6, 6, 6, 9, 6, 4, 8, 8, 7, 10, 8, 7, 6, 2, 2, 7, 7, 5, 7, 6, 6, 6, 4, 3, 4, 4, 3, 6, 6, 4, 9, 9, 9, 10, 5, 4, 3, 3, 1, 8, 6, 6, 6, 6, 5, 10, 9, 9, 6, 4, 2, 9, 8, 7, 7, 5, 2, 6, 4, 2, 6, 2, 1, 4, 3, 3, 6, 5, 4, 3, 3, 3, 2, 2, 1, 10, 6, 6, 3, 1, 1, 2, 2, 1, 5, 3, 3, 6, 6, 6, 2, 1, 1, 5, 4, 3, 6, 4, 3, 7, 6, 6, 9, 8, 7, 6, 6, 3
 |6, 5, 3, 1, 2, 1, 8, 7, 6, 6, 5, 4, 5, 3, 3, 4, 4, 4, 6, 4, 4, 3, 2, 1, 6, 3, 3, 2, 1, 1, 8, 7, 6, 3, 3, 1, 8, 7, 7, 5, 5, 4, 8, 8, 4, 5, 5, 5, 5, 5, 4, 9, 5, 3, 2, 2, 2, 9, 8, 4, 8, 7, 5, 7, 5, 5, 6, 4, 2, 8, 7, 6, 7, 7, 5, 8, 8, 8, 2, 2, 2, 4, 3, 3, 9, 7, 4, 4, 4, 3, 10, 9, 9, 5, 3, 3, 8, 4, 3, 5, 4, 3, 4, 4, 4, 8, 6, 4, 5, 4, 4, 7, 5, 5, 5, 5, 4, 5, 5, 5, 8, 6, 2, 4, 2, 1, 7, 5, 3, 9, 9, 9, 7, 6, 5, 6, 6, 6, 3, 3, 3, 5, 4, 3, 9, 7, 6, 5, 5, 4, 9, 5, 2, 4, 4, 3, 7, 6, 5, 10, 9, 8, 8, 7, 6, 4, 3, 2, 4, 4, 3, 9, 8, 7, 10, 6, 4, 7, 7, 7, 6, 6, 6, 9, 9, 9, 9, 7, 7, 1, 1, 1, 7, 7, 7, 7, 6, 6, 6, 4, 3, 8, 7, 6, 10, 6, 3, 4, 4, 4, 10, 9, 8, 8, 7, 7, 8, 7, 6, 3, 3, 3, 8, 7, 6, 4, 3, 3, 10, 7, 6, 10, 10, 10, 8, 6, 5, 6, 5, 3, 4, 4, 4, 10, 9, 9, 4, 2, 2, 10, 8, 6, 1, 1, 1, 5, 3, 3, 2, 2, 2, 2, 1, 1, 6, 6, 3, 10, 9, 8, 10, 6, 4, 5, 4, 4, 4, 3, 2, 7, 5, 3, 1, 1, 1, 8, 8, 4, 9, 7, 5, 8, 8, 8, 8, 7, 6, 7, 5, 4|];